3 3 2
20 1 74 0 148 1 83 2 183 0 112 1 156 0 152 1 143 0 11 2 157 1 22 0 12 2 142 1 33 0 177 2 57 0 130 2 35 0 159 2 178 
20 0 51 1 29 0 101 2 146 1 100 0 121 1 25 2 19 0 61 1 158 0 137 2 192 0 49 2 41 1 175 0 167 2 95 0 107 1 85 2 11 
20 1 40 2 25 0 174 1 95 2 157 1 73 0 155 1 28 0 99 2 86 1 15 0 128 1 181 2 139 0 79 1 114 2 53 0 152 2 182 0 43 

-------------
